NAME lp_typeD_4259
OBJSENSE MAX
ROWS
 N  OBJ
 L  c0      
 G  c1      
 G  c2      
 L  c_key_upper
 G  c_key_lower
 G  _chain_constr_1
 G  _chain_constr_2
 G  _chain_constr_3
 G  _chain_constr_4
 G  _chain_constr_5
 G  _chain_cycle
COLUMNS
    x0        OBJ       1.1095013029078320e+00
    x0        c0        1.4543308382698883e+00
    x0        c1        1.6210484740671671e+00
    x0        c2        1.8191162360236353e+00
    x0        c_key_upper  1.7519054813751516e+00
    x0        c_key_lower  1.7519054813751516e+00
    x1        OBJ       1.0972906522334016e+00
    x1        c0        1.8827912848974047e+00
    x1        c1        8.4921413511928168e-01
    x1        c2        1.4785380714786931e+00
    x1        c_key_upper  1.6810324101639313e+00
    x1        c_key_lower  1.6810324101639313e+00
    x2        OBJ       1.4080254009842124e+00
    x2        c0        6.3274152546859352e-01
    x2        c1        1.0308475202256482e+00
    x2        c2        8.8297123664639454e-01
    x2        c_key_upper  1.1903942412954605e+00
    x2        c_key_lower  1.1903942412954605e+00
    x3        OBJ       1.4780401864536152e+00
    x3        c0        1.3695318571116553e+00
    x3        c1        1.7205211801803042e+00
    x3        c2        1.3712719929066577e+00
    x3        c_key_upper  1.1776196300012178e+00
    x3        c_key_lower  1.1776196300012178e+00
    x4        OBJ       1.4644530021196083e+00
    x4        c0        1.7153713668494965e+00
    x4        c1        1.6094234046509219e+00
    x4        c2        1.2183012203952519e+00
    x4        c_key_upper  1.4626050751743191e+00
    x4        c_key_lower  1.4626050751743191e+00
    x5        OBJ       1.3024360515169968e+00
    x5        c0        1.8076321365347783e+00
    x5        c1        1.5553198065888008e+00
    x5        c2        7.3712305491438712e-01
    x5        c_key_upper  1.8214258153592144e+00
    x5        c_key_lower  1.8214258153592144e+00
    _chain_var_0  _chain_constr_1  -1
    _chain_var_0  _chain_cycle  1
    _chain_var_1  _chain_constr_1  1
    _chain_var_1  _chain_constr_2  -1
    _chain_var_2  _chain_constr_2  1
    _chain_var_2  _chain_constr_3  -1
    _chain_var_3  _chain_constr_3  1
    _chain_var_3  _chain_constr_4  -1
    _chain_var_4  _chain_constr_4  1
    _chain_var_4  _chain_constr_5  -1
    _chain_var_5  _chain_constr_5  1
    _chain_var_5  _chain_cycle  -1
RHS
    RHS1      c0        3.5996574190766324e+01
    RHS1      c1        1.3240342702528594e+01
    RHS1      c2        1.2668422395101478e+01
    RHS1      c_key_upper  4.5424913266846474e+01
    RHS1      c_key_lower  2.2712456633423237e+01
    RHS1      _chain_constr_1  10
    RHS1      _chain_constr_2  10
    RHS1      _chain_constr_3  10
    RHS1      _chain_constr_4  10
    RHS1      _chain_constr_5  10
    RHS1      _chain_cycle  10
BOUNDS
 UP BND1      x0        10
 UP BND1      x1        10
 UP BND1      x2        10
 UP BND1      x3        10
 UP BND1      x4        10
 UP BND1      x5        10
 UP BND1      _chain_var_0  100
 UP BND1      _chain_var_1  100
 UP BND1      _chain_var_2  100
 UP BND1      _chain_var_3  100
 UP BND1      _chain_var_4  100
 UP BND1      _chain_var_5  100
ENDATA
